unsat
(:max-memory         18.62
 :memory             18.52
 :nlsat-arith-var    3
 :nlsat-atoms        12
 :nlsat-bool-var     1
 :nlsat-clauses      12
 :nlsat-conflicts    1
 :nlsat-propagations 4
 :nlsat-stages       1
 :num-allocs         68942
 :rlimit-count       6188
 :time               0.01
 :total-time         0.02)
